%%%mzn-stat: initTime=0.032999086
%%%mzn-stat: objective=200
%%%mzn-stat: nodes=963672
%%%mzn-stat: restarts=1108
%%%mzn-stat: peakDepth=1128
%%%mzn-stat: solveTime=224.734791545
%%%mzn-stat: variables=2539
%%%mzn-stat: propagators=2091
%%%mzn-stat: failures=231645
%%%mzn-stat: propagations=28470851
%%%mzn-stat: nogoods=231645
%%%mzn-stat: AverageConflictSize=59.974754473439965
%%%mzn-stat: NumUnitNogoodsLearned=190
%%%mzn-stat: AverageLearnedNogoodLength=77.74442357918366
%%%mzn-stat: AverageBacktrackAmount=0
%%%mzn-stat: AverageLbd=37.68089533553498
%%%mzn-stat-end
maxleg = 200;
succ = array1d(1..100,[63, 40, 1, 75, 43, 32, 20, 96, 57, 35, 58, 3, 100, 86, 13, 93, 16, 69, 33, 87, 94, 10, 59, 88, 8, 84, 85, 31, 18, 34, 29, 7, 30, 50, 41, 49, 6, 67, 91, 73, 71, 83, 21, 38, 27, 61, 24, 72, 76, 42, 54, 4, 19, 46, 82, 2, 90, 48, 45, 11, 37, 56, 62, 68, 44, 23, 97, 26, 5, 55, 36, 81, 70, 77, 80, 12, 89, 65, 28, 14, 17, 74, 39, 22, 98, 92, 66, 78, 60, 53, 51, 9, 15, 25, 64, 99, 52, 95, 47, 79]);
% time elapsed: 228.75 s
----------
%%%mzn-stat: initTime=0.032999086
%%%mzn-stat: objective=199
%%%mzn-stat: nodes=965581
%%%mzn-stat: restarts=1109
%%%mzn-stat: peakDepth=1128
%%%mzn-stat: solveTime=224.890141712
%%%mzn-stat: variables=2539
%%%mzn-stat: propagators=2091
%%%mzn-stat: failures=231759
%%%mzn-stat: propagations=28484261
%%%mzn-stat: nogoods=231759
%%%mzn-stat: AverageConflictSize=59.97951320121333
%%%mzn-stat: NumUnitNogoodsLearned=190
%%%mzn-stat: AverageLearnedNogoodLength=77.7494681975673
%%%mzn-stat: AverageBacktrackAmount=0
%%%mzn-stat: AverageLbd=37.67829512553989
%%%mzn-stat-end
maxleg = 199;
succ = array1d(1..100,[63, 40, 1, 75, 43, 32, 20, 96, 57, 35, 58, 3, 100, 86, 2, 93, 13, 69, 33, 87, 94, 10, 59, 88, 8, 84, 85, 31, 18, 34, 29, 7, 30, 50, 41, 49, 6, 67, 91, 73, 71, 83, 21, 38, 27, 61, 24, 72, 76, 42, 54, 4, 19, 46, 82, 15, 90, 48, 45, 11, 37, 56, 62, 68, 44, 23, 97, 26, 5, 55, 36, 81, 70, 77, 80, 12, 89, 47, 28, 14, 16, 74, 39, 22, 98, 92, 66, 65, 60, 53, 51, 9, 17, 25, 64, 99, 52, 95, 78, 79]);
% time elapsed: 228.90 s
----------
%%%mzn-stat: initTime=0.032999086
%%%mzn-stat: objective=191
%%%mzn-stat: nodes=968315
%%%mzn-stat: restarts=1109
%%%mzn-stat: peakDepth=1128
%%%mzn-stat: solveTime=225.122651723
%%%mzn-stat: variables=2539
%%%mzn-stat: propagators=2091
%%%mzn-stat: failures=231937
%%%mzn-stat: propagations=28506533
%%%mzn-stat: nogoods=231937
%%%mzn-stat: AverageConflictSize=59.95187055105481
%%%mzn-stat: NumUnitNogoodsLearned=190
%%%mzn-stat: AverageLearnedNogoodLength=77.72223060572483
%%%mzn-stat: AverageBacktrackAmount=0
%%%mzn-stat: AverageLbd=37.6632706295244
%%%mzn-stat-end
maxleg = 191;
succ = array1d(1..100,[63, 40, 1, 43, 29, 42, 20, 94, 69, 35, 58, 3, 100, 90, 2, 93, 13, 19, 33, 87, 75, 10, 59, 88, 8, 84, 66, 53, 18, 34, 28, 7, 30, 50, 41, 49, 39, 24, 91, 73, 71, 83, 31, 38, 27, 67, 97, 72, 76, 61, 54, 4, 6, 25, 82, 15, 86, 48, 85, 11, 37, 56, 62, 68, 44, 23, 65, 26, 5, 55, 36, 81, 70, 77, 80, 12, 89, 47, 32, 14, 16, 74, 60, 22, 98, 92, 45, 96, 51, 57, 46, 9, 17, 21, 64, 99, 52, 95, 78, 79]);
% time elapsed: 229.15 s
----------
==========
% time elapsed: 229.16 s
%%%mzn-stat: initTime=0.032999086
%%%mzn-stat: objective=191
%%%mzn-stat: nodes=968315
%%%mzn-stat: restarts=1109
%%%mzn-stat: peakDepth=1128
%%%mzn-stat: solveTime=225.122656902
%%%mzn-stat: variables=2539
%%%mzn-stat: propagators=2091
%%%mzn-stat: failures=231937
%%%mzn-stat: propagations=28506533
%%%mzn-stat: nogoods=231937
%%%mzn-stat: AverageConflictSize=59.95187055105481
%%%mzn-stat: NumUnitNogoodsLearned=190
%%%mzn-stat: AverageLearnedNogoodLength=77.72223060572483
%%%mzn-stat: AverageBacktrackAmount=0
%%%mzn-stat: AverageLbd=37.6632706295244
%%%mzn-stat-end
